HFSDDW
15	4	2
0	11	1	62
0	54	1	37
0	80	1	26
0	18	1	44
0	3	1	62
0	37	1	49
0	79	1	85
0	15	1	87
0	70	1	11
0	44	1	41
0	89	1	10
0	82	1	15
0	48	1	1
0	56	1	87
0	9	1	75
LBCmax: 353
RELDUE
-1	247	4	9
-1	300	5	3
-1	313	5	7
-1	315	4	1
-1	314	2	3
-1	317	1	8
-1	262	4	9
-1	297	8	7
-1	250	3	4
-1	272	3	6
-1	315	6	6
-1	291	8	9
-1	264	2	6
-1	294	1	1
-1	270	1	5
DDW
240	254
273	327
307	319
287	343
308	320
314	320
259	265
279	315
235	265
269	275
293	337
271	311
243	285
273	315
243	297
